c 
p cnf 10 40
-1 6 0
-5 -2 -3 0
-5 0
2 3 0
-8 -9 -2 0
-6 -1 5 0
-10 -2 7 -9 0
-4 3 0
-8 -5 2 0
-5 -2 7 0
-1 0
4 9 -10 -8 -3 0
-4 0
-4 1 5 3 -2 0
10 -5 8 -7 0
8 -10 0
-5 4 -6 1 0
-4 9 5 -8 -7 0
-3 10 0
2 0
6 -5 0
7 0
6 2 0
5 7 0
-6 4 -2 0
-1 7 0
-7 1 -10 0
6 0
-4 -5 1 -7 10 0
3 2 0
3 2 0
-7 4 6 3 -2 0
-7 9 3 0
9 0
-10 4 6 0
-1 -2 -10 0
-5 -8 0
8 -1 3 2 0
10 3 -6 7 0
-8 0
